\ This file has been generated by DOcplex
\ ENCODING=ISO-8859-1
\Problem name: random_problem.lp

Minimize
 obj: 252 x0 + 126 x1 - 258 x2 - 129 x3 + 686 x4 + 343 x5 + 200 x6 + 100 x7
      - 262 x8 - 131 x9 + [ 536 x0^2 + 536 x0*x1 + 224 x0*x2 + 112 x0*x3
      + 720 x0*x4 + 360 x0*x5 + 688 x0*x6 + 344 x0*x7 + 384 x0*x8 + 192 x0*x9
      + 134 x1^2 + 112 x1*x2 + 56 x1*x3 + 360 x1*x4 + 180 x1*x5 + 344 x1*x6
      + 172 x1*x7 + 192 x1*x8 + 96 x1*x9 + 808 x2^2 + 808 x2*x3 + 368 x2*x4
      + 184 x2*x5 + 16 x2*x6 + 8 x2*x7 + 368 x2*x8 + 184 x2*x9 + 202 x3^2
      + 184 x3*x4 + 92 x3*x5 + 8 x3*x6 + 4 x3*x7 + 184 x3*x8 + 92 x3*x9
      + 1352 x4^2 + 1352 x4*x5 + 528 x4*x6 + 264 x4*x7 + 896 x4*x8 + 448 x4*x9
      + 338 x5^2 + 264 x5*x6 + 132 x5*x7 + 448 x5*x8 + 224 x5*x9 + 808 x6^2
      + 808 x6*x7 + 752 x6*x8 + 376 x6*x9 + 202 x7^2 + 376 x7*x8 + 188 x7*x9
      + 696 x8^2 + 696 x8*x9 + 174 x9^2 ]/2
Subject To
 c0: 2 x0 + x1 + 2 x2 + x3 + 2 x4 + x5 + 2 x6 + x7 + 2 x8 + x9 = 3

Bounds
 0 <= x0 <= 1
 0 <= x1 <= 1
 0 <= x2 <= 1
 0 <= x3 <= 1
 0 <= x4 <= 1
 0 <= x5 <= 1
 0 <= x6 <= 1
 0 <= x7 <= 1
 0 <= x8 <= 1
 0 <= x9 <= 1

Binaries
 x0 x1 x2 x3 x4 x5 x6 x7 x8 x9
End
